code/experiments/eil51_sub/eil51_n16.tsp
NAME : eil51_n16
COMMENT : 16-city problem (Christofides/Eilon)
TYPE : TSP
DIMENSION : 16
EDGE_WEIGHT_TYPE : CEIL_2D
NODE_COORD_SECTION
1 49 49
2 20 26
3 31 32
4 5 25
5 8 52
6 30 48
7 58 48
8 37 69
9 38 46
10 46 10
11 10 17
12 21 10
13 32 39
14 25 55
15 56 37
16 30 40
EOF
