code/experiments/eil51_sub/eil51_n16.opt.tour
16
0 7 13 4 5 8 15 12 2 1 
3 10 11 9 14 6 
